# Solution for model Model5
# Objective value = 1866
y[0,0,1] 1
y[0,0,2] 0
y[0,1,0] 0
y[0,1,1] 1
y[0,2,0] 1
y[1,0,2] 1
y[1,1,0] 0
y[1,1,1] 1
y[1,2,0] 1
y[2,0,1] 0
y[2,0,2] 1
y[2,1,1] 0
y[2,1,2] 1
y[2,2,0] 1
y[2,2,1] 0
x[0,0,0,0] 0
x[0,0,0,1] 1
x[0,0,0,2] 0
x[0,0,1,0] 1
x[0,0,1,1] 1
x[0,0,1,2] 0
x[0,0,2,0] 0
x[0,0,2,1] 1
x[0,0,2,2] 1
x[0,1,0,0] 0
x[0,1,0,1] 0
x[0,1,0,2] 0
x[0,1,1,0] 0
x[0,1,1,1] 1
x[0,1,1,2] 1
x[0,1,2,0] 0
x[0,1,2,1] 0
x[0,1,2,2] 0
x[0,2,0,0] 0
x[0,2,0,1] 0
x[0,2,0,2] 0
x[0,2,1,0] 0
x[0,2,1,1] 1
x[0,2,1,2] 1
x[0,2,2,0] 0
x[0,2,2,1] 0
x[0,2,2,2] 0
x[1,0,0,0] 0
x[1,0,0,1] 0
x[1,0,0,2] 0
x[1,0,1,0] 0
x[1,0,1,1] 0
x[1,0,1,2] 0
x[1,0,2,0] 0
x[1,0,2,1] 0
x[1,0,2,2] 0
x[1,1,0,0] 0
x[1,1,0,1] 0
x[1,1,0,2] 0
x[1,1,1,0] 0
x[1,1,1,1] 0
x[1,1,1,2] 1
x[1,1,2,0] 1
x[1,1,2,1] 0
x[1,1,2,2] 0
x[1,2,0,0] 0
x[1,2,0,1] 0
x[1,2,0,2] 0
x[1,2,1,0] 0
x[1,2,1,1] 0
x[1,2,1,2] 0
x[1,2,2,0] 0
x[1,2,2,1] 0
x[1,2,2,2] 0
x[2,0,0,0] 0
x[2,0,0,1] 0
x[2,0,0,2] 0
x[2,0,1,0] 0
x[2,0,1,1] 0
x[2,0,1,2] 0
x[2,0,2,0] 0
x[2,0,2,1] 1
x[2,0,2,2] 0
x[2,1,0,0] 0
x[2,1,0,1] 0
x[2,1,0,2] 0
x[2,1,1,0] 0
x[2,1,1,1] 0
x[2,1,1,2] 0
x[2,1,2,0] 0
x[2,1,2,1] 0
x[2,1,2,2] 1
x[2,2,0,0] 0
x[2,2,0,1] 0
x[2,2,0,2] 0
x[2,2,1,0] 0
x[2,2,1,1] 0
x[2,2,1,2] 0
x[2,2,2,0] 0
x[2,2,2,1] 0
x[2,2,2,2] 0
s[0,0,1] 1156
s[0,0,2] 0
s[0,1,0] 0
s[0,1,1] 920
s[0,2,0] 682
s[1,0,2] 6.7000000000000125e+02
s[1,1,0] 0
s[1,1,1] 510
s[1,2,0] 480
s[2,0,1] 0
s[2,0,2] 1.2600000000000118e+03
s[2,1,1] 0
s[2,1,2] 1.0080000000000117e+03
s[2,2,0] 958
s[2,2,1] 0
Z_FO 1866
C112 1
C113 0
C114 1
C115 0
C116 1
